NAME: ACTUAL_TOURS/amz1923
TYPE: TOUR
COMMENT: RouteID_cc4656b9-b6c5-4667-8e15-ce80b1406b72
DIMENSION: 173
TOUR_SECTION
62
29
160
61
96
31
22
50
170
145
126
27
49
102
137
19
28
40
88
133
140
79
25
124
99
71
163
86
122
89
98
155
138
32
26
59
139
143
156
38
64
20
127
93
109
41
6
97
3
165
116
63
152
60
9
15
23
142
5
52
30
154
157
91
16
34
4
68
144
136
66
113
70
172
92
17
44
33
51
101
111
167
24
131
108
128
35
114
18
36
146
37
74
80
106
54
69
110
81
100
147
13
58
166
117
72
161
134
56
75
90
55
153
135
123
159
112
168
107
173
77
121
95
129
149
43
130
118
45
53
141
87
12
171
48
2
151
120
14
47
164
103
158
8
7
57
46
76
1
105
84
94
83
125
67
148
169
73
65
11
162
42
119
132
85
78
39
82
10
115
150
104
21
-1
EOF
